(set-logic QF_NRA)
(set-info :source |Benchmarks generated from hycomp (https://es-static.fbk.eu/tools/hycomp/). BMC instances of non-linear hybrid automata taken from: Alessandro Cimatti, Sergio Mover, Stefano Tonetta, A quantifier-free SMT encoding of non-linear hybrid automata, FMCAD 2012 and Alessandro Cimatti, Sergio Mover, Stefano Tonetta, Quantier-free encoding of invariants for Hybrid Systems, Formal Methods in System Design. This instance solves a BMC problem of depth 3 and uses the quantifier free encoding with equivalences and lemmas encoding. Contacts: Sergio Mover (mover@fbk.eu), Stefano Tonetta (tonettas@fbk.eu), Alessandro Cimatti (cimatti@fbk.eu).|)
(set-info :smt-lib-version 2.0)
(set-info :category "industrial")
(set-info :status unsat)
;; MathSAT API call trace
;; generated on Mon Mar 19 10:39:37 2012
(declare-fun b.event_is_timed__AT2 () Bool)
(declare-fun b.counter.1__AT1 () Bool)
(declare-fun b.counter.2__AT1 () Bool)
(declare-fun b.event_is_timed__AT0 () Bool)
(declare-fun b.time__AT3 () Real)
(declare-fun b.counter.3__AT1 () Bool)
(declare-fun b.bool_atom__AT0 () Bool)
(declare-fun b.bool_atom__AT2 () Bool)
(declare-fun b.delta__AT3 () Real)
(declare-fun b.x__AT0 () Real)
(declare-fun b.y__AT2 () Real)
(declare-fun b.time__AT2 () Real)
(declare-fun b.EVENT.0__AT3 () Bool)
(declare-fun b.counter.0__AT2 () Bool)
(declare-fun b.event_is_timed__AT3 () Bool)
(declare-fun b.delta__AT2 () Real)
(declare-fun b.delta__AT1 () Real)
(declare-fun b.counter.1__AT2 () Bool)
(declare-fun b.speed_y__AT1 () Real)
(declare-fun b.x__AT2 () Real)
(declare-fun b.time__AT1 () Real)
(declare-fun b.EVENT.0__AT2 () Bool)
(declare-fun b.EVENT.0__AT1 () Bool)
(declare-fun b.counter.2__AT2 () Bool)
(declare-fun b.time__AT0 () Real)
(declare-fun b.EVENT.1__AT2 () Bool)
(declare-fun b.EVENT.1__AT1 () Bool)
(declare-fun b.counter.3__AT2 () Bool)
(declare-fun b.y__AT3 () Real)
(declare-fun b.delta__AT0 () Real)
(declare-fun b.counter.0__AT3 () Bool)
(declare-fun b.EVENT.1__AT0 () Bool)
(declare-fun b.counter.1__AT3 () Bool)
(declare-fun b.x__AT3 () Real)
(declare-fun b.speed_y__AT2 () Real)
(declare-fun b.counter.2__AT3 () Bool)
(declare-fun b.EVENT.1__AT3 () Bool)
(declare-fun b.counter.3__AT3 () Bool)
(declare-fun b.y__AT0 () Real)
(declare-fun b.bool_atom__AT3 () Bool)
(declare-fun b.counter.0__AT0 () Bool)
(declare-fun b.EVENT.0__AT0 () Bool)
(declare-fun b.counter.3__AT0 () Bool)
(declare-fun b.counter.1__AT0 () Bool)
(declare-fun b.event_is_timed__AT1 () Bool)
(declare-fun b.speed_y__AT3 () Real)
(declare-fun b.bool_atom__AT1 () Bool)
(declare-fun b.g__AT0 () Real)
(declare-fun b.speed_y__AT0 () Real)
(declare-fun b.x__AT1 () Real)
(declare-fun b.y__AT1 () Real)
(declare-fun b.counter.2__AT0 () Bool)
(declare-fun b.counter.0__AT1 () Bool)
(assert (let ((.def_66 (* (- 1.0) b.g__AT0)))
(let ((.def_69 (* (/ 1 2) .def_66)))
(let ((.def_81 (* 2.0 .def_69)))
(let ((.def_730 (* .def_81 b.delta__AT3)))
(let ((.def_731 (+ b.speed_y__AT3 .def_730)))
(let ((.def_748 (<= .def_731 0.0 )))
(let ((.def_749 (not .def_748)))
(let ((.def_746 (<= b.speed_y__AT3 0.0 )))
(let ((.def_769 (or .def_746 .def_749)))
(let ((.def_734 (<= 0.0 b.speed_y__AT3)))
(let ((.def_735 (not .def_734)))
(let ((.def_732 (<= 0.0 .def_731)))
(let ((.def_768 (or .def_732 .def_735)))
(let ((.def_770 (and .def_768 .def_769)))
(let ((.def_121 (<= 0.0 b.g__AT0)))
(let ((.def_771 (or .def_121 .def_770)))
(let ((.def_733 (not .def_732)))
(let ((.def_765 (or .def_733 .def_734)))
(let ((.def_747 (not .def_746)))
(let ((.def_764 (or .def_747 .def_748)))
(let ((.def_766 (and .def_764 .def_765)))
(let ((.def_116 (<= b.g__AT0 0.0 )))
(let ((.def_767 (or .def_116 .def_766)))
(let ((.def_772 (and .def_767 .def_771)))
(let ((.def_761 (and .def_746 .def_748)))
(let ((.def_760 (and .def_732 .def_734)))
(let ((.def_762 (or .def_760 .def_761)))
(let ((.def_721 (* b.speed_y__AT3 b.delta__AT3)))
(let ((.def_719 (* b.delta__AT3 b.delta__AT3)))
(let ((.def_720 (* .def_69 .def_719)))
(let ((.def_722 (+ .def_720 .def_721)))
(let ((.def_707 (* (- 1.0) b.x__AT3)))
(let ((.def_708 (* b.x__AT3 .def_707)))
(let ((.def_723 (* (- 1.0) .def_708)))
(let ((.def_726 (+ .def_723 .def_722)))
(let ((.def_727 (+ b.y__AT3 .def_726)))
(let ((.def_740 (<= .def_727 0.0 )))
(let ((.def_754 (not .def_740)))
(let ((.def_738 (<= b.y__AT3 .def_708)))
(let ((.def_755 (or .def_738 .def_754)))
(let ((.def_709 (<= .def_708 b.y__AT3)))
(let ((.def_752 (not .def_709)))
(let ((.def_728 (<= 0.0 .def_727)))
(let ((.def_753 (or .def_728 .def_752)))
(let ((.def_756 (and .def_753 .def_755)))
(let ((.def_750 (or .def_747 .def_749)))
(let ((.def_751 (not .def_750)))
(let ((.def_757 (or .def_751 .def_756)))
(let ((.def_742 (not .def_728)))
(let ((.def_743 (or .def_709 .def_742)))
(let ((.def_739 (not .def_738)))
(let ((.def_741 (or .def_739 .def_740)))
(let ((.def_744 (and .def_741 .def_743)))
(let ((.def_736 (or .def_733 .def_735)))
(let ((.def_737 (not .def_736)))
(let ((.def_745 (or .def_737 .def_744)))
(let ((.def_758 (and .def_745 .def_757)))
(let ((.def_729 (and .def_709 .def_728)))
(let ((.def_759 (and .def_729 .def_758)))
(let ((.def_763 (and .def_759 .def_762)))
(let ((.def_773 (and .def_763 .def_772)))
(let ((.def_58 (<= b.g__AT0 10.0 )))
(let ((.def_57 (<= 8.0 b.g__AT0)))
(let ((.def_59 (and .def_57 .def_58)))
(let ((.def_774 (and .def_59 .def_773)))
(let ((.def_413 (not b.counter.0__AT2)))
(let ((.def_713 (or b.counter.1__AT2 .def_413)))
(let ((.def_408 (not b.counter.2__AT2)))
(let ((.def_714 (or .def_408 .def_713)))
(let ((.def_715 (or b.counter.3__AT2 .def_714)))
(let ((.def_710 (and .def_59 .def_709)))
(let ((.def_704 (not b.EVENT.0__AT3)))
(let ((.def_702 (not b.EVENT.1__AT3)))
(let ((.def_705 (or .def_702 .def_704)))
(let ((.def_616 (not b.counter.1__AT3)))
(let ((.def_4 (not b.counter.0__AT3)))
(let ((.def_695 (or .def_4 .def_616)))
(let ((.def_699 (or b.counter.3__AT3 .def_695)))
(let ((.def_696 (or b.counter.2__AT3 .def_695)))
(let ((.def_8 (not b.counter.2__AT3)))
(let ((.def_694 (or .def_4 .def_8)))
(let ((.def_697 (and .def_694 .def_696)))
(let ((.def_633 (not b.counter.3__AT3)))
(let ((.def_698 (or .def_633 .def_697)))
(let ((.def_700 (and .def_698 .def_699)))
(let ((.def_706 (and .def_700 .def_705)))
(let ((.def_711 (and .def_706 .def_710)))
(let ((.def_689 (<= 0.0 b.delta__AT2)))
(let ((.def_493 (not b.EVENT.0__AT2)))
(let ((.def_491 (not b.EVENT.1__AT2)))
(let ((.def_565 (and .def_491 .def_493)))
(let ((.def_567 (not .def_565)))
(let ((.def_690 (or .def_567 .def_689)))
(let ((.def_691 (or b.EVENT.1__AT2 .def_690)))
(let ((.def_602 (= b.bool_atom__AT2 b.bool_atom__AT3)))
(let ((.def_598 (= b.counter.0__AT3 b.counter.0__AT2)))
(let ((.def_596 (= b.counter.1__AT3 b.counter.1__AT2)))
(let ((.def_594 (= b.counter.2__AT3 b.counter.2__AT2)))
(let ((.def_593 (= b.counter.3__AT3 b.counter.3__AT2)))
(let ((.def_595 (and .def_593 .def_594)))
(let ((.def_597 (and .def_595 .def_596)))
(let ((.def_599 (and .def_597 .def_598)))
(let ((.def_685 (and .def_599 .def_602)))
(let ((.def_686 (or .def_567 .def_685)))
(let ((.def_687 (or b.EVENT.1__AT2 .def_686)))
(let ((.def_674 (* .def_66 b.delta__AT2)))
(let ((.def_675 (* (- 1.0) b.speed_y__AT3)))
(let ((.def_678 (+ .def_675 .def_674)))
(let ((.def_679 (+ b.speed_y__AT2 .def_678)))
(let ((.def_680 (= .def_679 0.0 )))
(let ((.def_665 (* (- 1.0) b.y__AT3)))
(let ((.def_510 (* b.speed_y__AT2 b.delta__AT2)))
(let ((.def_669 (+ .def_510 .def_665)))
(let ((.def_508 (* b.delta__AT2 b.delta__AT2)))
(let ((.def_509 (* .def_69 .def_508)))
(let ((.def_670 (+ .def_509 .def_669)))
(let ((.def_671 (+ b.y__AT2 .def_670)))
(let ((.def_672 (= .def_671 0.0 )))
(let ((.def_585 (= b.x__AT2 b.x__AT3)))
(let ((.def_673 (and .def_585 .def_672)))
(let ((.def_681 (and .def_673 .def_680)))
(let ((.def_682 (or .def_567 .def_681)))
(let ((.def_588 (= b.y__AT2 b.y__AT3)))
(let ((.def_660 (and .def_585 .def_588)))
(let ((.def_591 (= b.speed_y__AT2 b.speed_y__AT3)))
(let ((.def_661 (and .def_591 .def_660)))
(let ((.def_657 (= b.delta__AT2 0.0 )))
(let ((.def_658 (and .def_565 .def_657)))
(let ((.def_659 (not .def_658)))
(let ((.def_662 (or .def_659 .def_661)))
(let ((.def_663 (or b.EVENT.1__AT2 .def_662)))
(let ((.def_650 (and .def_591 .def_599)))
(let ((.def_651 (or b.bool_atom__AT2 .def_650)))
(let ((.def_625 (or .def_4 b.counter.0__AT2)))
(let ((.def_624 (or b.counter.0__AT3 .def_413)))
(let ((.def_626 (and .def_624 .def_625)))
(let ((.def_627 (and .def_616 .def_626)))
(let ((.def_628 (or b.counter.1__AT2 .def_627)))
(let ((.def_403 (not b.counter.1__AT2)))
(let ((.def_623 (or b.counter.1__AT3 .def_403)))
(let ((.def_629 (and .def_623 .def_628)))
(let ((.def_641 (and .def_8 .def_629)))
(let ((.def_642 (or b.counter.2__AT2 .def_641)))
(let ((.def_636 (and .def_413 .def_616)))
(let ((.def_637 (or b.counter.1__AT2 .def_636)))
(let ((.def_638 (and .def_623 .def_637)))
(let ((.def_639 (and b.counter.2__AT3 .def_638)))
(let ((.def_640 (or .def_408 .def_639)))
(let ((.def_643 (and .def_640 .def_642)))
(let ((.def_644 (and b.counter.3__AT3 .def_643)))
(let ((.def_645 (or b.counter.3__AT2 .def_644)))
(let ((.def_630 (and b.counter.2__AT3 .def_629)))
(let ((.def_631 (or b.counter.2__AT2 .def_630)))
(let ((.def_619 (or b.counter.1__AT3 b.counter.1__AT2)))
(let ((.def_617 (and b.counter.0__AT3 .def_616)))
(let ((.def_618 (or .def_403 .def_617)))
(let ((.def_620 (and .def_618 .def_619)))
(let ((.def_621 (and .def_8 .def_620)))
(let ((.def_622 (or .def_408 .def_621)))
(let ((.def_632 (and .def_622 .def_631)))
(let ((.def_634 (and .def_632 .def_633)))
(let ((.def_422 (not b.counter.3__AT2)))
(let ((.def_635 (or .def_422 .def_634)))
(let ((.def_646 (and .def_635 .def_645)))
(let ((.def_613 (* b.speed_y__AT3 b.speed_y__AT3)))
(let ((.def_400 (* b.speed_y__AT2 b.speed_y__AT2)))
(let ((.def_614 (= .def_400 .def_613)))
(let ((.def_611 (+ b.speed_y__AT2 b.speed_y__AT3)))
(let ((.def_612 (= .def_611 0.0 )))
(let ((.def_615 (and .def_612 .def_614)))
(let ((.def_647 (and .def_615 .def_646)))
(let ((.def_610 (not b.bool_atom__AT2)))
(let ((.def_648 (or .def_610 .def_647)))
(let ((.def_496 (* (- 1.0) b.x__AT2)))
(let ((.def_497 (* b.x__AT2 .def_496)))
(let ((.def_607 (= b.y__AT2 .def_497)))
(let ((.def_523 (<= 0.0 b.speed_y__AT2)))
(let ((.def_524 (not .def_523)))
(let ((.def_608 (and .def_524 .def_607)))
(let ((.def_609 (= b.bool_atom__AT2 .def_608)))
(let ((.def_649 (and .def_609 .def_648)))
(let ((.def_652 (and .def_649 .def_651)))
(let ((.def_653 (and .def_585 .def_652)))
(let ((.def_654 (and .def_588 .def_653)))
(let ((.def_655 (or .def_565 .def_654)))
(let ((.def_656 (or b.EVENT.1__AT2 .def_655)))
(let ((.def_664 (and .def_656 .def_663)))
(let ((.def_683 (and .def_664 .def_682)))
(let ((.def_572 (= b.time__AT2 b.time__AT3)))
(let ((.def_586 (and .def_572 .def_585)))
(let ((.def_589 (and .def_586 .def_588)))
(let ((.def_592 (and .def_589 .def_591)))
(let ((.def_600 (and .def_592 .def_599)))
(let ((.def_603 (and .def_600 .def_602)))
(let ((.def_604 (or .def_491 .def_603)))
(let ((.def_575 (* (- 1.0) b.time__AT3)))
(let ((.def_578 (+ b.delta__AT2 .def_575)))
(let ((.def_579 (+ b.time__AT2 .def_578)))
(let ((.def_580 (= .def_579 0.0 )))
(let ((.def_581 (or .def_567 .def_580)))
(let ((.def_582 (or b.EVENT.1__AT2 .def_581)))
(let ((.def_573 (or .def_565 .def_572)))
(let ((.def_574 (or b.EVENT.1__AT2 .def_573)))
(let ((.def_583 (and .def_574 .def_582)))
(let ((.def_605 (and .def_583 .def_604)))
(let ((.def_569 (= .def_567 b.event_is_timed__AT3)))
(let ((.def_566 (= b.event_is_timed__AT2 .def_565)))
(let ((.def_570 (and .def_566 .def_569)))
(let ((.def_606 (and .def_570 .def_605)))
(let ((.def_684 (and .def_606 .def_683)))
(let ((.def_688 (and .def_684 .def_687)))
(let ((.def_692 (and .def_688 .def_691)))
(let ((.def_693 (and .def_491 .def_692)))
(let ((.def_712 (and .def_693 .def_711)))
(let ((.def_716 (and .def_712 .def_715)))
(let ((.def_519 (* .def_81 b.delta__AT2)))
(let ((.def_520 (+ b.speed_y__AT2 .def_519)))
(let ((.def_537 (<= .def_520 0.0 )))
(let ((.def_538 (not .def_537)))
(let ((.def_535 (<= b.speed_y__AT2 0.0 )))
(let ((.def_558 (or .def_535 .def_538)))
(let ((.def_521 (<= 0.0 .def_520)))
(let ((.def_557 (or .def_521 .def_524)))
(let ((.def_559 (and .def_557 .def_558)))
(let ((.def_560 (or .def_121 .def_559)))
(let ((.def_522 (not .def_521)))
(let ((.def_554 (or .def_522 .def_523)))
(let ((.def_536 (not .def_535)))
(let ((.def_553 (or .def_536 .def_537)))
(let ((.def_555 (and .def_553 .def_554)))
(let ((.def_556 (or .def_116 .def_555)))
(let ((.def_561 (and .def_556 .def_560)))
(let ((.def_550 (and .def_535 .def_537)))
(let ((.def_549 (and .def_521 .def_523)))
(let ((.def_551 (or .def_549 .def_550)))
(let ((.def_511 (+ .def_509 .def_510)))
(let ((.def_512 (* (- 1.0) .def_497)))
(let ((.def_515 (+ .def_512 .def_511)))
(let ((.def_516 (+ b.y__AT2 .def_515)))
(let ((.def_529 (<= .def_516 0.0 )))
(let ((.def_543 (not .def_529)))
(let ((.def_527 (<= b.y__AT2 .def_497)))
(let ((.def_544 (or .def_527 .def_543)))
(let ((.def_498 (<= .def_497 b.y__AT2)))
(let ((.def_541 (not .def_498)))
(let ((.def_517 (<= 0.0 .def_516)))
(let ((.def_542 (or .def_517 .def_541)))
(let ((.def_545 (and .def_542 .def_544)))
(let ((.def_539 (or .def_536 .def_538)))
(let ((.def_540 (not .def_539)))
(let ((.def_546 (or .def_540 .def_545)))
(let ((.def_531 (not .def_517)))
(let ((.def_532 (or .def_498 .def_531)))
(let ((.def_528 (not .def_527)))
(let ((.def_530 (or .def_528 .def_529)))
(let ((.def_533 (and .def_530 .def_532)))
(let ((.def_525 (or .def_522 .def_524)))
(let ((.def_526 (not .def_525)))
(let ((.def_534 (or .def_526 .def_533)))
(let ((.def_547 (and .def_534 .def_546)))
(let ((.def_518 (and .def_498 .def_517)))
(let ((.def_548 (and .def_518 .def_547)))
(let ((.def_552 (and .def_548 .def_551)))
(let ((.def_562 (and .def_552 .def_561)))
(let ((.def_563 (and .def_59 .def_562)))
(let ((.def_197 (not b.counter.0__AT1)))
(let ((.def_502 (or b.counter.1__AT1 .def_197)))
(let ((.def_192 (not b.counter.2__AT1)))
(let ((.def_503 (or .def_192 .def_502)))
(let ((.def_504 (or b.counter.3__AT1 .def_503)))
(let ((.def_499 (and .def_59 .def_498)))
(let ((.def_494 (or .def_491 .def_493)))
(let ((.def_484 (or .def_403 .def_413)))
(let ((.def_488 (or b.counter.3__AT2 .def_484)))
(let ((.def_485 (or b.counter.2__AT2 .def_484)))
(let ((.def_483 (or .def_408 .def_413)))
(let ((.def_486 (and .def_483 .def_485)))
(let ((.def_487 (or .def_422 .def_486)))
(let ((.def_489 (and .def_487 .def_488)))
(let ((.def_495 (and .def_489 .def_494)))
(let ((.def_500 (and .def_495 .def_499)))
(let ((.def_478 (<= 0.0 b.delta__AT1)))
(let ((.def_276 (not b.EVENT.0__AT1)))
(let ((.def_274 (not b.EVENT.1__AT1)))
(let ((.def_348 (and .def_274 .def_276)))
(let ((.def_350 (not .def_348)))
(let ((.def_479 (or .def_350 .def_478)))
(let ((.def_480 (or b.EVENT.1__AT1 .def_479)))
(let ((.def_389 (= b.bool_atom__AT1 b.bool_atom__AT2)))
(let ((.def_385 (= b.counter.0__AT1 b.counter.0__AT2)))
(let ((.def_382 (= b.counter.1__AT1 b.counter.1__AT2)))
(let ((.def_379 (= b.counter.2__AT1 b.counter.2__AT2)))
(let ((.def_377 (= b.counter.3__AT1 b.counter.3__AT2)))
(let ((.def_380 (and .def_377 .def_379)))
(let ((.def_383 (and .def_380 .def_382)))
(let ((.def_386 (and .def_383 .def_385)))
(let ((.def_474 (and .def_386 .def_389)))
(let ((.def_475 (or .def_350 .def_474)))
(let ((.def_476 (or b.EVENT.1__AT1 .def_475)))
(let ((.def_463 (* .def_66 b.delta__AT1)))
(let ((.def_464 (* (- 1.0) b.speed_y__AT2)))
(let ((.def_467 (+ .def_464 .def_463)))
(let ((.def_468 (+ b.speed_y__AT1 .def_467)))
(let ((.def_469 (= .def_468 0.0 )))
(let ((.def_454 (* (- 1.0) b.y__AT2)))
(let ((.def_293 (* b.speed_y__AT1 b.delta__AT1)))
(let ((.def_458 (+ .def_293 .def_454)))
(let ((.def_291 (* b.delta__AT1 b.delta__AT1)))
(let ((.def_292 (* .def_69 .def_291)))
(let ((.def_459 (+ .def_292 .def_458)))
(let ((.def_460 (+ b.y__AT1 .def_459)))
(let ((.def_461 (= .def_460 0.0 )))
(let ((.def_368 (= b.x__AT1 b.x__AT2)))
(let ((.def_462 (and .def_368 .def_461)))
(let ((.def_470 (and .def_462 .def_469)))
(let ((.def_471 (or .def_350 .def_470)))
(let ((.def_371 (= b.y__AT1 b.y__AT2)))
(let ((.def_449 (and .def_368 .def_371)))
(let ((.def_374 (= b.speed_y__AT1 b.speed_y__AT2)))
(let ((.def_450 (and .def_374 .def_449)))
(let ((.def_446 (= b.delta__AT1 0.0 )))
(let ((.def_447 (and .def_348 .def_446)))
(let ((.def_448 (not .def_447)))
(let ((.def_451 (or .def_448 .def_450)))
(let ((.def_452 (or b.EVENT.1__AT1 .def_451)))
(let ((.def_439 (and .def_374 .def_386)))
(let ((.def_440 (or b.bool_atom__AT1 .def_439)))
(let ((.def_414 (or b.counter.0__AT1 .def_413)))
(let ((.def_412 (or .def_197 b.counter.0__AT2)))
(let ((.def_415 (and .def_412 .def_414)))
(let ((.def_416 (and .def_403 .def_415)))
(let ((.def_417 (or b.counter.1__AT1 .def_416)))
(let ((.def_187 (not b.counter.1__AT1)))
(let ((.def_411 (or .def_187 b.counter.1__AT2)))
(let ((.def_418 (and .def_411 .def_417)))
(let ((.def_430 (and .def_408 .def_418)))
(let ((.def_431 (or b.counter.2__AT1 .def_430)))
(let ((.def_425 (and .def_197 .def_403)))
(let ((.def_426 (or b.counter.1__AT1 .def_425)))
(let ((.def_427 (and .def_411 .def_426)))
(let ((.def_428 (and b.counter.2__AT2 .def_427)))
(let ((.def_429 (or .def_192 .def_428)))
(let ((.def_432 (and .def_429 .def_431)))
(let ((.def_433 (and b.counter.3__AT2 .def_432)))
(let ((.def_434 (or b.counter.3__AT1 .def_433)))
(let ((.def_419 (and b.counter.2__AT2 .def_418)))
(let ((.def_420 (or b.counter.2__AT1 .def_419)))
(let ((.def_406 (or b.counter.1__AT1 b.counter.1__AT2)))
(let ((.def_404 (and b.counter.0__AT2 .def_403)))
(let ((.def_405 (or .def_187 .def_404)))
(let ((.def_407 (and .def_405 .def_406)))
(let ((.def_409 (and .def_407 .def_408)))
(let ((.def_410 (or .def_192 .def_409)))
(let ((.def_421 (and .def_410 .def_420)))
(let ((.def_423 (and .def_421 .def_422)))
(let ((.def_206 (not b.counter.3__AT1)))
(let ((.def_424 (or .def_206 .def_423)))
(let ((.def_435 (and .def_424 .def_434)))
(let ((.def_183 (* b.speed_y__AT1 b.speed_y__AT1)))
(let ((.def_401 (= .def_183 .def_400)))
(let ((.def_398 (+ b.speed_y__AT1 b.speed_y__AT2)))
(let ((.def_399 (= .def_398 0.0 )))
(let ((.def_402 (and .def_399 .def_401)))
(let ((.def_436 (and .def_402 .def_435)))
(let ((.def_397 (not b.bool_atom__AT1)))
(let ((.def_437 (or .def_397 .def_436)))
(let ((.def_279 (* (- 1.0) b.x__AT1)))
(let ((.def_280 (* b.x__AT1 .def_279)))
(let ((.def_394 (= b.y__AT1 .def_280)))
(let ((.def_306 (<= 0.0 b.speed_y__AT1)))
(let ((.def_307 (not .def_306)))
(let ((.def_395 (and .def_307 .def_394)))
(let ((.def_396 (= b.bool_atom__AT1 .def_395)))
(let ((.def_438 (and .def_396 .def_437)))
(let ((.def_441 (and .def_438 .def_440)))
(let ((.def_442 (and .def_368 .def_441)))
(let ((.def_443 (and .def_371 .def_442)))
(let ((.def_444 (or .def_348 .def_443)))
(let ((.def_445 (or b.EVENT.1__AT1 .def_444)))
(let ((.def_453 (and .def_445 .def_452)))
(let ((.def_472 (and .def_453 .def_471)))
(let ((.def_355 (= b.time__AT1 b.time__AT2)))
(let ((.def_369 (and .def_355 .def_368)))
(let ((.def_372 (and .def_369 .def_371)))
(let ((.def_375 (and .def_372 .def_374)))
(let ((.def_387 (and .def_375 .def_386)))
(let ((.def_390 (and .def_387 .def_389)))
(let ((.def_391 (or .def_274 .def_390)))
(let ((.def_358 (* (- 1.0) b.time__AT2)))
(let ((.def_361 (+ b.delta__AT1 .def_358)))
(let ((.def_362 (+ b.time__AT1 .def_361)))
(let ((.def_363 (= .def_362 0.0 )))
(let ((.def_364 (or .def_350 .def_363)))
(let ((.def_365 (or b.EVENT.1__AT1 .def_364)))
(let ((.def_356 (or .def_348 .def_355)))
(let ((.def_357 (or b.EVENT.1__AT1 .def_356)))
(let ((.def_366 (and .def_357 .def_365)))
(let ((.def_392 (and .def_366 .def_391)))
(let ((.def_352 (= .def_350 b.event_is_timed__AT2)))
(let ((.def_349 (= b.event_is_timed__AT1 .def_348)))
(let ((.def_353 (and .def_349 .def_352)))
(let ((.def_393 (and .def_353 .def_392)))
(let ((.def_473 (and .def_393 .def_472)))
(let ((.def_477 (and .def_473 .def_476)))
(let ((.def_481 (and .def_477 .def_480)))
(let ((.def_482 (and .def_274 .def_481)))
(let ((.def_501 (and .def_482 .def_500)))
(let ((.def_505 (and .def_501 .def_504)))
(let ((.def_302 (* .def_81 b.delta__AT1)))
(let ((.def_303 (+ b.speed_y__AT1 .def_302)))
(let ((.def_320 (<= .def_303 0.0 )))
(let ((.def_321 (not .def_320)))
(let ((.def_318 (<= b.speed_y__AT1 0.0 )))
(let ((.def_341 (or .def_318 .def_321)))
(let ((.def_304 (<= 0.0 .def_303)))
(let ((.def_340 (or .def_304 .def_307)))
(let ((.def_342 (and .def_340 .def_341)))
(let ((.def_343 (or .def_121 .def_342)))
(let ((.def_305 (not .def_304)))
(let ((.def_337 (or .def_305 .def_306)))
(let ((.def_319 (not .def_318)))
(let ((.def_336 (or .def_319 .def_320)))
(let ((.def_338 (and .def_336 .def_337)))
(let ((.def_339 (or .def_116 .def_338)))
(let ((.def_344 (and .def_339 .def_343)))
(let ((.def_333 (and .def_318 .def_320)))
(let ((.def_332 (and .def_304 .def_306)))
(let ((.def_334 (or .def_332 .def_333)))
(let ((.def_294 (+ .def_292 .def_293)))
(let ((.def_295 (* (- 1.0) .def_280)))
(let ((.def_298 (+ .def_295 .def_294)))
(let ((.def_299 (+ b.y__AT1 .def_298)))
(let ((.def_312 (<= .def_299 0.0 )))
(let ((.def_326 (not .def_312)))
(let ((.def_310 (<= b.y__AT1 .def_280)))
(let ((.def_327 (or .def_310 .def_326)))
(let ((.def_281 (<= .def_280 b.y__AT1)))
(let ((.def_324 (not .def_281)))
(let ((.def_300 (<= 0.0 .def_299)))
(let ((.def_325 (or .def_300 .def_324)))
(let ((.def_328 (and .def_325 .def_327)))
(let ((.def_322 (or .def_319 .def_321)))
(let ((.def_323 (not .def_322)))
(let ((.def_329 (or .def_323 .def_328)))
(let ((.def_314 (not .def_300)))
(let ((.def_315 (or .def_281 .def_314)))
(let ((.def_311 (not .def_310)))
(let ((.def_313 (or .def_311 .def_312)))
(let ((.def_316 (and .def_313 .def_315)))
(let ((.def_308 (or .def_305 .def_307)))
(let ((.def_309 (not .def_308)))
(let ((.def_317 (or .def_309 .def_316)))
(let ((.def_330 (and .def_317 .def_329)))
(let ((.def_301 (and .def_281 .def_300)))
(let ((.def_331 (and .def_301 .def_330)))
(let ((.def_335 (and .def_331 .def_334)))
(let ((.def_345 (and .def_335 .def_344)))
(let ((.def_346 (and .def_59 .def_345)))
(let ((.def_28 (not b.counter.0__AT0)))
(let ((.def_285 (or b.counter.1__AT0 .def_28)))
(let ((.def_31 (not b.counter.2__AT0)))
(let ((.def_286 (or .def_31 .def_285)))
(let ((.def_287 (or b.counter.3__AT0 .def_286)))
(let ((.def_282 (and .def_59 .def_281)))
(let ((.def_277 (or .def_274 .def_276)))
(let ((.def_267 (or .def_187 .def_197)))
(let ((.def_271 (or b.counter.3__AT1 .def_267)))
(let ((.def_268 (or b.counter.2__AT1 .def_267)))
(let ((.def_266 (or .def_192 .def_197)))
(let ((.def_269 (and .def_266 .def_268)))
(let ((.def_270 (or .def_206 .def_269)))
(let ((.def_272 (and .def_270 .def_271)))
(let ((.def_278 (and .def_272 .def_277)))
(let ((.def_283 (and .def_278 .def_282)))
(let ((.def_261 (<= 0.0 b.delta__AT0)))
(let ((.def_47 (not b.EVENT.0__AT0)))
(let ((.def_45 (not b.EVENT.1__AT0)))
(let ((.def_130 (and .def_45 .def_47)))
(let ((.def_132 (not .def_130)))
(let ((.def_262 (or .def_132 .def_261)))
(let ((.def_263 (or b.EVENT.1__AT0 .def_262)))
(let ((.def_172 (= b.bool_atom__AT0 b.bool_atom__AT1)))
(let ((.def_167 (= b.counter.0__AT0 b.counter.0__AT1)))
(let ((.def_164 (= b.counter.1__AT0 b.counter.1__AT1)))
(let ((.def_161 (= b.counter.2__AT0 b.counter.2__AT1)))
(let ((.def_159 (= b.counter.3__AT0 b.counter.3__AT1)))
(let ((.def_162 (and .def_159 .def_161)))
(let ((.def_165 (and .def_162 .def_164)))
(let ((.def_168 (and .def_165 .def_167)))
(let ((.def_257 (and .def_168 .def_172)))
(let ((.def_258 (or .def_132 .def_257)))
(let ((.def_259 (or b.EVENT.1__AT0 .def_258)))
(let ((.def_246 (* b.delta__AT0 .def_66)))
(let ((.def_247 (* (- 1.0) b.speed_y__AT1)))
(let ((.def_250 (+ .def_247 .def_246)))
(let ((.def_251 (+ b.speed_y__AT0 .def_250)))
(let ((.def_252 (= .def_251 0.0 )))
(let ((.def_238 (* (- 1.0) b.y__AT1)))
(let ((.def_72 (* b.delta__AT0 b.speed_y__AT0)))
(let ((.def_241 (+ .def_72 .def_238)))
(let ((.def_65 (* b.delta__AT0 b.delta__AT0)))
(let ((.def_70 (* .def_65 .def_69)))
(let ((.def_242 (+ .def_70 .def_241)))
(let ((.def_243 (+ b.y__AT0 .def_242)))
(let ((.def_244 (= .def_243 0.0 )))
(let ((.def_150 (= b.x__AT0 b.x__AT1)))
(let ((.def_245 (and .def_150 .def_244)))
(let ((.def_253 (and .def_245 .def_252)))
(let ((.def_254 (or .def_132 .def_253)))
(let ((.def_153 (= b.y__AT0 b.y__AT1)))
(let ((.def_233 (and .def_150 .def_153)))
(let ((.def_156 (= b.speed_y__AT0 b.speed_y__AT1)))
(let ((.def_234 (and .def_156 .def_233)))
(let ((.def_230 (= b.delta__AT0 0.0 )))
(let ((.def_231 (and .def_130 .def_230)))
(let ((.def_232 (not .def_231)))
(let ((.def_235 (or .def_232 .def_234)))
(let ((.def_236 (or b.EVENT.1__AT0 .def_235)))
(let ((.def_223 (and .def_156 .def_168)))
(let ((.def_224 (or b.bool_atom__AT0 .def_223)))
(let ((.def_198 (or b.counter.0__AT0 .def_197)))
(let ((.def_196 (or .def_28 b.counter.0__AT1)))
(let ((.def_199 (and .def_196 .def_198)))
(let ((.def_200 (and .def_187 .def_199)))
(let ((.def_201 (or b.counter.1__AT0 .def_200)))
(let ((.def_26 (not b.counter.1__AT0)))
(let ((.def_195 (or .def_26 b.counter.1__AT1)))
(let ((.def_202 (and .def_195 .def_201)))
(let ((.def_214 (and .def_192 .def_202)))
(let ((.def_215 (or b.counter.2__AT0 .def_214)))
(let ((.def_209 (and .def_28 .def_187)))
(let ((.def_210 (or b.counter.1__AT0 .def_209)))
(let ((.def_211 (and .def_195 .def_210)))
(let ((.def_212 (and b.counter.2__AT1 .def_211)))
(let ((.def_213 (or .def_31 .def_212)))
(let ((.def_216 (and .def_213 .def_215)))
(let ((.def_217 (and b.counter.3__AT1 .def_216)))
(let ((.def_218 (or b.counter.3__AT0 .def_217)))
(let ((.def_203 (and b.counter.2__AT1 .def_202)))
(let ((.def_204 (or b.counter.2__AT0 .def_203)))
(let ((.def_190 (or b.counter.1__AT0 b.counter.1__AT1)))
(let ((.def_188 (and b.counter.0__AT1 .def_187)))
(let ((.def_189 (or .def_26 .def_188)))
(let ((.def_191 (and .def_189 .def_190)))
(let ((.def_193 (and .def_191 .def_192)))
(let ((.def_194 (or .def_31 .def_193)))
(let ((.def_205 (and .def_194 .def_204)))
(let ((.def_207 (and .def_205 .def_206)))
(let ((.def_34 (not b.counter.3__AT0)))
(let ((.def_208 (or .def_34 .def_207)))
(let ((.def_219 (and .def_208 .def_218)))
(let ((.def_184 (* b.speed_y__AT0 b.speed_y__AT0)))
(let ((.def_185 (= .def_183 .def_184)))
(let ((.def_181 (+ b.speed_y__AT0 b.speed_y__AT1)))
(let ((.def_182 (= .def_181 0.0 )))
(let ((.def_186 (and .def_182 .def_185)))
(let ((.def_220 (and .def_186 .def_219)))
(let ((.def_180 (not b.bool_atom__AT0)))
(let ((.def_221 (or .def_180 .def_220)))
(let ((.def_52 (* (- 1.0) b.x__AT0)))
(let ((.def_53 (* b.x__AT0 .def_52)))
(let ((.def_177 (= b.y__AT0 .def_53)))
(let ((.def_86 (<= 0.0 b.speed_y__AT0)))
(let ((.def_87 (not .def_86)))
(let ((.def_178 (and .def_87 .def_177)))
(let ((.def_179 (= b.bool_atom__AT0 .def_178)))
(let ((.def_222 (and .def_179 .def_221)))
(let ((.def_225 (and .def_222 .def_224)))
(let ((.def_226 (and .def_150 .def_225)))
(let ((.def_227 (and .def_153 .def_226)))
(let ((.def_228 (or .def_130 .def_227)))
(let ((.def_229 (or b.EVENT.1__AT0 .def_228)))
(let ((.def_237 (and .def_229 .def_236)))
(let ((.def_255 (and .def_237 .def_254)))
(let ((.def_137 (= b.time__AT0 b.time__AT1)))
(let ((.def_151 (and .def_137 .def_150)))
(let ((.def_154 (and .def_151 .def_153)))
(let ((.def_157 (and .def_154 .def_156)))
(let ((.def_169 (and .def_157 .def_168)))
(let ((.def_173 (and .def_169 .def_172)))
(let ((.def_174 (or .def_45 .def_173)))
(let ((.def_140 (* (- 1.0) b.time__AT1)))
(let ((.def_143 (+ b.delta__AT0 .def_140)))
(let ((.def_144 (+ b.time__AT0 .def_143)))
(let ((.def_145 (= .def_144 0.0 )))
(let ((.def_146 (or .def_132 .def_145)))
(let ((.def_147 (or b.EVENT.1__AT0 .def_146)))
(let ((.def_138 (or .def_130 .def_137)))
(let ((.def_139 (or b.EVENT.1__AT0 .def_138)))
(let ((.def_148 (and .def_139 .def_147)))
(let ((.def_175 (and .def_148 .def_174)))
(let ((.def_134 (= .def_132 b.event_is_timed__AT1)))
(let ((.def_131 (= b.event_is_timed__AT0 .def_130)))
(let ((.def_135 (and .def_131 .def_134)))
(let ((.def_176 (and .def_135 .def_175)))
(let ((.def_256 (and .def_176 .def_255)))
(let ((.def_260 (and .def_256 .def_259)))
(let ((.def_264 (and .def_260 .def_263)))
(let ((.def_265 (and .def_45 .def_264)))
(let ((.def_284 (and .def_265 .def_283)))
(let ((.def_288 (and .def_284 .def_287)))
(let ((.def_82 (* b.delta__AT0 .def_81)))
(let ((.def_83 (+ b.speed_y__AT0 .def_82)))
(let ((.def_100 (<= .def_83 0.0 )))
(let ((.def_101 (not .def_100)))
(let ((.def_98 (<= b.speed_y__AT0 0.0 )))
(let ((.def_123 (or .def_98 .def_101)))
(let ((.def_84 (<= 0.0 .def_83)))
(let ((.def_122 (or .def_84 .def_87)))
(let ((.def_124 (and .def_122 .def_123)))
(let ((.def_125 (or .def_121 .def_124)))
(let ((.def_85 (not .def_84)))
(let ((.def_118 (or .def_85 .def_86)))
(let ((.def_99 (not .def_98)))
(let ((.def_117 (or .def_99 .def_100)))
(let ((.def_119 (and .def_117 .def_118)))
(let ((.def_120 (or .def_116 .def_119)))
(let ((.def_126 (and .def_120 .def_125)))
(let ((.def_113 (and .def_98 .def_100)))
(let ((.def_112 (and .def_84 .def_86)))
(let ((.def_114 (or .def_112 .def_113)))
(let ((.def_73 (+ .def_70 .def_72)))
(let ((.def_74 (* (- 1.0) .def_53)))
(let ((.def_77 (+ .def_74 .def_73)))
(let ((.def_78 (+ b.y__AT0 .def_77)))
(let ((.def_92 (<= .def_78 0.0 )))
(let ((.def_106 (not .def_92)))
(let ((.def_90 (<= b.y__AT0 .def_53)))
(let ((.def_107 (or .def_90 .def_106)))
(let ((.def_54 (<= .def_53 b.y__AT0)))
(let ((.def_104 (not .def_54)))
(let ((.def_79 (<= 0.0 .def_78)))
(let ((.def_105 (or .def_79 .def_104)))
(let ((.def_108 (and .def_105 .def_107)))
(let ((.def_102 (or .def_99 .def_101)))
(let ((.def_103 (not .def_102)))
(let ((.def_109 (or .def_103 .def_108)))
(let ((.def_94 (not .def_79)))
(let ((.def_95 (or .def_54 .def_94)))
(let ((.def_91 (not .def_90)))
(let ((.def_93 (or .def_91 .def_92)))
(let ((.def_96 (and .def_93 .def_95)))
(let ((.def_88 (or .def_85 .def_87)))
(let ((.def_89 (not .def_88)))
(let ((.def_97 (or .def_89 .def_96)))
(let ((.def_110 (and .def_97 .def_109)))
(let ((.def_80 (and .def_54 .def_79)))
(let ((.def_111 (and .def_80 .def_110)))
(let ((.def_115 (and .def_111 .def_114)))
(let ((.def_127 (and .def_115 .def_126)))
(let ((.def_128 (and .def_59 .def_127)))
(let ((.def_60 (and .def_54 .def_59)))
(let ((.def_48 (or .def_45 .def_47)))
(let ((.def_38 (or .def_26 .def_28)))
(let ((.def_42 (or b.counter.3__AT0 .def_38)))
(let ((.def_39 (or b.counter.2__AT0 .def_38)))
(let ((.def_37 (or .def_28 .def_31)))
(let ((.def_40 (and .def_37 .def_39)))
(let ((.def_41 (or .def_34 .def_40)))
(let ((.def_43 (and .def_41 .def_42)))
(let ((.def_49 (and .def_43 .def_48)))
(let ((.def_61 (and .def_49 .def_60)))
(let ((.def_29 (and .def_26 .def_28)))
(let ((.def_32 (and .def_29 .def_31)))
(let ((.def_35 (and .def_32 .def_34)))
(let ((.def_23 (= b.y__AT0 10.0 )))
(let ((.def_19 (= b.x__AT0 0.0 )))
(let ((.def_15 (= b.time__AT0 0.0 )))
(let ((.def_17 (and .def_15 b.event_is_timed__AT0)))
(let ((.def_20 (and .def_17 .def_19)))
(let ((.def_24 (and .def_20 .def_23)))
(let ((.def_36 (and .def_24 .def_35)))
(let ((.def_62 (and .def_36 .def_61)))
(let ((.def_6 (or .def_4 b.counter.1__AT3)))
(let ((.def_9 (or .def_6 .def_8)))
(let ((.def_11 (or .def_9 b.counter.3__AT3)))
(let ((.def_12 (not .def_11)))
(let ((.def_63 (and .def_12 .def_62)))
(let ((.def_129 (and .def_63 .def_128)))
(let ((.def_289 (and .def_129 .def_288)))
(let ((.def_347 (and .def_289 .def_346)))
(let ((.def_506 (and .def_347 .def_505)))
(let ((.def_564 (and .def_506 .def_563)))
(let ((.def_717 (and .def_564 .def_716)))
(let ((.def_775 (and .def_717 .def_774)))
.def_775))))))))))))))))))))))))))))))))))))))))))))))))))))))))))))))))))))))))))))))))))))))))))))))))))))))))))))))))))))))))))))))))))))))))))))))))))))))))))))))))))))))))))))))))))))))))))))))))))))))))))))))))))))))))))))))))))))))))))))))))))))))))))))))))))))))))))))))))))))))))))))))))))))))))))))))))))))))))))))))))))))))))))))))))))))))))))))))))))))))))))))))))))))))))))))))))))))))))))))))))))))))))))))))))))))))))))))))))))))))))))))))))))))))))))))))))))))))))))))))))))))))))))))))))))))))))))))))))))))))))))))))))))))))))))))))))))))))))))))))))))))))))))))))))))))))))))))))))))))))))))))))))))))))))))))))))))))))))))))))))))))))))))))))))))))))))))))))))))))))))))))))
(check-sat)
(exit)
